
Gurobi 13.0.2 (win64) logging started Thu Jul 23 16:28:02 2026

Set parameter LogFile to value "E:\codes\ExactEBRP\results\gf_gurobi_performance_recovery_round29\runs\stage2__tight_T_seed4101__c3_replica__300s\external\native_logs\R.0.0.1.1.1.1.1.1.1.0_terminal_mip.gurobi.log"
Gurobi Optimizer version 13.0.2 build v13.0.2rc1 (win64 - Windows 10.0 (19045.2))

CPU model: 12th Gen Intel(R) Core(TM) i7-12700KF, instruction set [SSE2|AVX|AVX2]
Thread count: 12 physical cores, 20 logical processors, using up to 1 threads

Non-default parameters:
TimeLimit  149.2337742
MIPGap  0
MIPGapAbs  0
LogToConsole  0
Threads  1

Optimize a model with 11897 rows, 3372 columns and 67355 nonzeros (Min)
Model fingerprint: 0x1a45801f
Model has 21 linear objective coefficients
Variable types: 1683 continuous, 1689 integer (1489 binary)
Coefficient statistics:
  Matrix range     [7e-03, 2e+04]
  Objective range  [7e-03, 1e+00]
  Bounds range     [1e-01, 1e+03]
  RHS range        [1e-01, 5e+04]

Presolve removed 1585 rows and 92 columns
Presolve time: 0.20s
Presolved: 10312 rows, 3280 columns, 67233 nonzeros
Variable types: 1630 continuous, 1650 integer (1468 binary)

Root relaxation: objective 4.354135e-01, 3955 iterations, 0.23 seconds (0.64 work units)

    Nodes    |    Current Node    |     Objective Bounds      |     Work
 Expl Unexpl |  Obj  Depth IntInf | Incumbent    BestBd   Gap | It/Node Time

     0     0    0.43541    0  177          -    0.43541      -     -    0s
     0     0 infeasible    0               - infeasible      -     -    0s

Cutting planes:
  Learned: 1
  Gomory: 9
  Cover: 16
  Implied bound: 135
  Clique: 12
  MIR: 297
  StrongCG: 6
  Flow cover: 57
  GUB cover: 2
  Zero half: 10
  Network: 15
  RLT: 11
  Relax-and-lift: 60
  BQP: 16

Explored 1 nodes (4071 simplex iterations) in 0.81 seconds (1.55 work units)
Thread count was 1 (of 20 available processors)

Solution count 0

Model is infeasible
Best objective -, best bound -, gap -

User-callback calls 1022, time in user-callback 0.00 sec
